qe/outputs/qe/cbrdelay_l0_discretize/T=5,eliminate=[I_0,I_1,I_2,I_3,I_4,L_1,L_2,L_3,L_4,lhs=S_4].smt2
; benchmark generated from python API
(set-info :status unknown)
(declare-fun C () Real)
(declare-fun B () Real)
(declare-fun S_3 () Real)
(declare-fun S_2 () Real)
(declare-fun S_0 () Real)
(declare-fun S_1 () Real)
(declare-fun S_4 () Real)
(declare-fun A_0 () Real)
(declare-fun L_0 () Real)
(declare-fun A_1 () Real)
(declare-fun L0 () Real)
(declare-fun A_4 () Real)
(declare-fun A_3 () Real)
(declare-fun A_2 () Real)
(assert
 (let (($x37 (>= L0 0.0)))
 (let (($x591 (>= C 5.0)))
 (let ((?x330 (* (- 1.0) S_1)))
 (let ((?x506 (* (- 1.0) A_4)))
 (let ((?x552 (* (- 1.0) B)))
 (let ((?x258 (* (- 1.0) C)))
 (let (($x10758 (<= (+ (* (- 2.0) C) A_1 ?x552 (* (- 1.0) A_3) S_4 ?x330) 0.0)))
 (let (($x10805 (<= (+ ?x258 A_1 ?x552 (* (- 1.0) A_3) (* (- 1.0) S_2) S_4) 0.0)))
 (let ((?x944 (* (- 1.0) S_0)))
 (let ((?x510 (* (- 1.0) A_3)))
 (let ((?x1891 (* (- 3.0) C)))
 (let (($x10701 (<= (+ (* (- 2.0) C) A_1 ?x552 ?x510 S_4 (* (- 1.0) A_0) L_0) 0.0)))
 (let (($x10852 (or (not (<= 0.0 (+ (* (- 1.0) A_1) A_3 (* (- 1.0) S_4) S_3))) (not (<= 0.0 (+ ?x552 (* 2.0 C) (* (- 1.0) S_4) S_3))))))
 (let (($x10713 (<= (+ C (* (- 1.0) A_1) B A_3 (* (- 1.0) S_4) S_0) 0.0)))
 (let (($x950 (<= (+ A_3 (* (- 1.0) L_0) (* (- 1.0) S_4)) 0.0)))
 (let (($x10788 (or $x950 (<= (+ (* 3.0 C) (* (- 1.0) S_4) S_0) 0.0) $x10713)))
 (let (($x10679 (<= (+ ?x258 (* (- 1.0) A_1) B A_3 S_2 (* (- 1.0) S_4)) 0.0)))
 (let (($x10778 (or $x950 (<= (+ (* (- 1.0) A_1) B A_3 (* (- 1.0) S_4) S_1) 0.0) (<= (+ (* 2.0 C) (* (- 1.0) S_4) S_1) 0.0))))
 (let (($x10265 (<= (+ (* (- 2.0) C) A_2 ?x552 ?x506 S_4 (* (- 1.0) A_0) L_0) 0.0)))
 (let (($x117 (>= S_3 S_2)))
 (let (($x36 (>= L_0 L0)))
 (let (($x111 (>= S_1 S_0)))
 (let (($x114 (>= S_2 S_1)))
 (let (($x120 (>= S_4 S_3)))
 (let (($x123 (>= A_2 A_1)))
 (let (($x124 (>= A_3 A_2)))
 (let (($x125 (>= A_4 A_3)))
 (and (<= (+ A_0 (* (- 1.0) L_0)) S_3) $x125 $x124 $x123 $x120 $x114 $x111 $x36 $x117 (<= (+ ?x1891 S_3 (* (- 1.0) A_0) L_0) 0.0) (<= (+ (* (- 4.0) C) S_3 ?x944) 0.0) (not (<= 0.0 (+ ?x552 ?x258 S_3 ?x330))) (not (<= 0.0 (+ ?x552 ?x258 S_3 (* (- 1.0) A_0) L_0))) (not (<= 0.0 (+ ?x552 (* (- 2.0) C) S_3 ?x944))) (<= (+ L_0 ?x506 S_4) 0.0) (<= (+ ?x1891 S_3 ?x330) 0.0) (<= (+ A_2 ?x552 ?x506 S_4 (* (- 1.0) S_3)) 0.0) (<= (+ ?x258 A_2 ?x552 ?x506 (* (- 1.0) S_2) S_4) 0.0) $x10265 (<= (+ ?x1891 A_2 ?x552 ?x506 S_4 ?x944) 0.0) (<= (+ (* (- 2.0) C) A_2 ?x552 ?x506 S_4 ?x330) 0.0) (<= (+ ?x258 ?x510 L_0 S_4) 0.0) $x10778 (or $x950 (<= (+ C S_2 (* (- 1.0) S_4)) 0.0) $x10679) $x10788 (<= (+ A_1 ?x552 ?x510 S_4 (* (- 1.0) S_3)) 0.0) (<= (+ C A_1 ?x552 ?x506 S_4 (* (- 1.0) S_3)) 0.0) (<= (+ (* (- 2.0) C) A_1 ?x552 ?x506 S_4 ?x944) 0.0) (<= (+ ?x258 A_1 ?x552 ?x506 S_4 (* (- 1.0) A_0) L_0) 0.0) $x10852 $x10701 (<= (+ ?x1891 A_1 ?x552 ?x510 S_4 ?x944) 0.0) $x10805 $x10758 (<= (+ A_1 ?x552 ?x506 (* (- 1.0) S_2) S_4) 0.0) (<= (+ ?x258 A_1 ?x552 ?x506 S_4 ?x330) 0.0) $x591 $x37 (<= (+ (* (- 2.0) C) L_0 S_2 (* (- 1.0) A_0)) 0.0) (<= (+ (* (- 2.0) C) S_2 ?x330) 0.0) (<= (+ ?x1891 S_2 ?x944) 0.0) (<= (+ (* (- 2.0) C) S_4 (* (- 1.0) S_3)) 0.0) (<= (+ (* (- 4.0) C) S_4 ?x330) 0.0) (<= (+ L_0 (* (- 4.0) C) S_4 (* (- 1.0) A_0)) 0.0) (<= (+ S_0 (* (- 1.0) A_0) L_0) 0.0) (not (>= (+ L_0 (* (- 1.0) A_1) S_3) 0.0)) (<= (+ ?x1891 (* (- 1.0) S_2) S_4) 0.0) (<= (+ (* (- 2.0) C) (* (- 1.0) S_2) S_3) 0.0) (<= (+ ?x258 L_0 (* (- 1.0) A_0) S_1) 0.0) (<= (+ (* (- 2.0) C) ?x944 S_1) 0.0) (<= (+ (* (- 5.0) C) S_4 ?x944) 0.0) (<= (+ C (* (- 1.0) S_3) S_1) 0.0) (<= (+ C (* (- 1.0) S_2) S_0) 0.0) (<= (+ (* 2.0 C) (* (- 1.0) S_3) S_0) 0.0) (not (>= (+ ?x552 (* (- 1.0) S_2) S_3) 0.0)) (not (>= (+ ?x552 C) 0.0)))))))))))))))))))))))))))))))
(check-sat)
