qe/outputs/qe/cbrdelay_l0_discretize/T=5,eliminate=[I_0,I_1,I_2,I_3,I_4,L_1,L_2,L_3,L_4,lhs=S_4].smt2.z3
[And(A_0 + -1*L_0 <= S_3,
     A_4 >= A_3,
     A_3 >= A_2,
     A_2 >= A_1,
     S_4 >= S_3,
     S_2 >= S_1,
     S_1 >= S_0,
     L_0 >= L0,
     S_3 >= S_2,
     -3*C + S_3 + -1*A_0 + L_0 <= 0,
     -4*C + S_3 + -1*S_0 <= 0,
     Not(0 <= -1*B + -1*C + S_3 + -1*S_1),
     Not(0 <= -1*B + -1*C + S_3 + -1*A_0 + L_0),
     Not(0 <= -1*B + -2*C + S_3 + -1*S_0),
     L_0 + -1*A_4 + S_4 <= 0,
     -3*C + S_3 + -1*S_1 <= 0,
     A_2 + -1*B + -1*A_4 + S_4 + -1*S_3 <= 0,
     -1*C + A_2 + -1*B + -1*A_4 + -1*S_2 + S_4 <= 0,
     -2*C + A_2 + -1*B + -1*A_4 + S_4 + -1*A_0 + L_0 <= 0,
     -3*C + A_2 + -1*B + -1*A_4 + S_4 + -1*S_0 <= 0,
     -2*C + A_2 + -1*B + -1*A_4 + S_4 + -1*S_1 <= 0,
     -1*C + -1*A_3 + L_0 + S_4 <= 0,
     Or(A_3 + -1*L_0 + -1*S_4 <= 0,
        -1*A_1 + B + A_3 + -1*S_4 + S_1 <= 0,
        2*C + -1*S_4 + S_1 <= 0),
     Or(A_3 + -1*L_0 + -1*S_4 <= 0,
        C + S_2 + -1*S_4 <= 0,
        -1*C + -1*A_1 + B + A_3 + S_2 + -1*S_4 <= 0),
     Or(A_3 + -1*L_0 + -1*S_4 <= 0,
        3*C + -1*S_4 + S_0 <= 0,
        C + -1*A_1 + B + A_3 + -1*S_4 + S_0 <= 0),
     A_1 + -1*B + -1*A_3 + S_4 + -1*S_3 <= 0,
     C + A_1 + -1*B + -1*A_4 + S_4 + -1*S_3 <= 0,
     -2*C + A_1 + -1*B + -1*A_4 + S_4 + -1*S_0 <= 0,
     -1*C + A_1 + -1*B + -1*A_4 + S_4 + -1*A_0 + L_0 <= 0,
     Or(Not(0 <= -1*A_1 + A_3 + -1*S_4 + S_3),
        Not(0 <= -1*B + 2*C + -1*S_4 + S_3)),
     -2*C + A_1 + -1*B + -1*A_3 + S_4 + -1*A_0 + L_0 <= 0,
     -3*C + A_1 + -1*B + -1*A_3 + S_4 + -1*S_0 <= 0,
     -1*C + A_1 + -1*B + -1*A_3 + -1*S_2 + S_4 <= 0,
     -2*C + A_1 + -1*B + -1*A_3 + S_4 + -1*S_1 <= 0,
     A_1 + -1*B + -1*A_4 + -1*S_2 + S_4 <= 0,
     -1*C + A_1 + -1*B + -1*A_4 + S_4 + -1*S_1 <= 0,
     C >= 5,
     L0 >= 0,
     -2*C + L_0 + S_2 + -1*A_0 <= 0,
     -2*C + S_2 + -1*S_1 <= 0,
     -3*C + S_2 + -1*S_0 <= 0,
     -2*C + S_4 + -1*S_3 <= 0,
     -4*C + S_4 + -1*S_1 <= 0,
     L_0 + -4*C + S_4 + -1*A_0 <= 0,
     S_0 + -1*A_0 + L_0 <= 0,
     Not(L_0 + -1*A_1 + S_3 >= 0),
     -3*C + -1*S_2 + S_4 <= 0,
     -2*C + -1*S_2 + S_3 <= 0,
     -1*C + L_0 + -1*A_0 + S_1 <= 0,
     -2*C + -1*S_0 + S_1 <= 0,
     -5*C + S_4 + -1*S_0 <= 0,
     C + -1*S_3 + S_1 <= 0,
     C + -1*S_2 + S_0 <= 0,
     2*C + -1*S_3 + S_0 <= 0,
     Not(-1*B + -1*S_2 + S_3 >= 0),
     Not(-1*B + C >= 0))]